NAME          OrnekMPS
OBJSENSE
 MIN
ROWS
 N  COST
 G  LIM1
 L  LIM2
 E  EQN
COLUMNS
    X1        COST               4.0   EQN                3.0
    X1        LIM1               4.0   LIM2               1.0
    X2        COST               1.0   EQN                1.0
    X2        LIM1               3.0   LIM2               2.0
RHS
    RHS1      LIM1               6.0   LIM2               4.0
    RHS1      EQN                3.0
BOUNDS
 LO BND1      X1                 0.0
 LO BND1      X2                 0.0
ENDATA
